c ind 1 21 22 23 24 25 26 27 28 29 30 31 32 33 34 35 36 37 38 39 40 41 42 43 44 45 0
p cnf 77 172
1 -3 0
2 -3 0
-1 -2 3 0
1 -5 0
2 -5 0
4 -5 0
-1 -2 -4 5 0
1 -7 0
2 -7 0
4 -7 0
6 -7 0
-1 -2 -4 -6 7 0
1 -9 0
2 -9 0
4 -9 0
6 -9 0
8 -9 0
-1 -2 -4 -6 -8 9 0
1 -11 0
2 -11 0
4 -11 0
6 -11 0
8 -11 0
10 -11 0
-1 -2 -4 -6 -8 -10 11 0
1 -13 0
2 -13 0
4 -13 0
6 -13 0
8 -13 0
10 -13 0
12 -13 0
-1 -2 -4 -6 -8 -10 -12 13 0
1 -15 0
2 -15 0
4 -15 0
6 -15 0
8 -15 0
10 -15 0
12 -15 0
14 -15 0
-1 -2 -4 -6 -8 -10 -12 -14 15 0
1 -17 0
2 -17 0
4 -17 0
6 -17 0
8 -17 0
10 -17 0
12 -17 0
14 -17 0
16 -17 0
-1 -2 -4 -6 -8 -10 -12 -14 -16 17 0
1 -19 0
2 -19 0
4 -19 0
6 -19 0
8 -19 0
10 -19 0
12 -19 0
14 -19 0
16 -19 0
18 -19 0
-1 -2 -4 -6 -8 -10 -12 -14 -16 -18 19 0
20 0
-1 21 -46 0
1 -21 -46 0
-1 -21 46 0
1 21 46 0
-46 0
-2 27 -47 0
2 -27 -47 0
-2 -27 47 0
2 27 47 0
-47 0
-4 33 -48 0
4 -33 -48 0
-4 -33 48 0
4 33 48 0
-48 0
-6 39 -49 0
6 -39 -49 0
-6 -39 49 0
6 39 49 0
-49 0
-8 45 -50 0
8 -45 -50 0
-8 -45 50 0
8 45 50 0
-50 0
-33 51 0
33 -51 0
-33 -52 0
33 -52 0
33 53 0
-52 53 0
-33 52 -53 0
-10 -53 -54 0
10 53 -54 0
-10 53 54 0
10 -53 54 0
-54 0
-21 55 0
21 -55 0
-21 -56 0
21 -56 0
21 57 0
-56 57 0
-21 56 -57 0
-12 -57 -58 0
12 57 -58 0
-12 57 58 0
12 -57 58 0
-58 0
-27 59 0
27 -59 0
-27 -60 0
27 -60 0
27 61 0
-60 61 0
-27 60 -61 0
-14 -61 -62 0
14 61 -62 0
-14 61 62 0
14 -61 62 0
-62 0
-39 63 0
39 -63 0
-39 -64 0
39 -64 0
39 65 0
-64 65 0
-39 64 -65 0
-16 -65 -66 0
16 65 -66 0
-16 65 66 0
16 -65 66 0
-66 0
-45 67 0
45 -67 0
-45 -68 0
45 -68 0
45 69 0
-68 69 0
-45 68 -69 0
-18 -69 -70 0
18 69 -70 0
-18 69 70 0
18 -69 70 0
-70 0
1 0
2 0
4 0
6 0
8 0
10 0
12 0
14 0
16 0
18 0
-71 -73 -75 0
71 73 -75 0
-71 73 75 0
71 -73 75 0
-72 -74 -76 0
72 74 -76 0
-72 74 76 0
72 -74 76 0
-75 -77 0
-76 -77 0
75 76 77 0
-20 77 0
20 -77 0
c __CPROVER_malloc_is_new_array#1 FALSE
c goto_symex::\guard#1 1
c goto_symex::\guard#2 2
c goto_symex::\guard#3 4
c goto_symex::\guard#4 6
c goto_symex::\guard#5 8
c goto_symex::\guard#6 10
c goto_symex::\guard#7 12
c goto_symex::\guard#8 14
c goto_symex::\guard#9 16
c goto_symex::\guard#10 18
c __CPROVER_thread_id!0#1 FALSE FALSE FALSE FALSE FALSE FALSE FALSE FALSE FALSE FALSE FALSE FALSE FALSE FALSE FALSE FALSE FALSE FALSE FALSE FALSE FALSE FALSE FALSE FALSE FALSE FALSE FALSE FALSE FALSE FALSE FALSE FALSE FALSE FALSE FALSE FALSE FALSE FALSE FALSE FALSE FALSE FALSE FALSE FALSE FALSE FALSE FALSE FALSE FALSE FALSE FALSE FALSE FALSE FALSE FALSE FALSE FALSE FALSE FALSE FALSE FALSE FALSE FALSE FALSE
c __CPROVER_rounding_mode!0#1 FALSE FALSE FALSE FALSE FALSE FALSE FALSE FALSE FALSE FALSE FALSE FALSE FALSE FALSE FALSE FALSE FALSE FALSE FALSE FALSE FALSE FALSE FALSE FALSE FALSE FALSE FALSE FALSE FALSE FALSE FALSE FALSE
c __CPROVER_pipe_count#1 FALSE FALSE FALSE FALSE FALSE FALSE FALSE FALSE FALSE FALSE FALSE FALSE FALSE FALSE FALSE FALSE FALSE FALSE FALSE FALSE FALSE FALSE FALSE FALSE FALSE FALSE FALSE FALSE FALSE FALSE FALSE FALSE
c __CPROVER_deallocated#1 FALSE FALSE FALSE FALSE FALSE FALSE FALSE FALSE FALSE FALSE FALSE FALSE FALSE FALSE FALSE FALSE FALSE FALSE FALSE FALSE FALSE FALSE FALSE FALSE FALSE FALSE FALSE FALSE FALSE FALSE FALSE FALSE FALSE FALSE FALSE FALSE FALSE FALSE FALSE FALSE FALSE FALSE FALSE FALSE FALSE FALSE FALSE FALSE FALSE FALSE FALSE FALSE FALSE FALSE FALSE FALSE FALSE FALSE FALSE FALSE FALSE FALSE FALSE FALSE
c check::1::x!0@1#1 21 22 23 24 25 26 27 28 29 30 31 32 33 34 35 36 37 38 39 40 41 42 43 44 45
c __CPROVER_dead_object#1 FALSE FALSE FALSE FALSE FALSE FALSE FALSE FALSE FALSE FALSE FALSE FALSE FALSE FALSE FALSE FALSE FALSE FALSE FALSE FALSE FALSE FALSE FALSE FALSE FALSE FALSE FALSE FALSE FALSE FALSE FALSE FALSE FALSE FALSE FALSE FALSE FALSE FALSE FALSE FALSE FALSE FALSE FALSE FALSE FALSE FALSE FALSE FALSE FALSE FALSE FALSE FALSE FALSE FALSE FALSE FALSE FALSE FALSE FALSE FALSE FALSE FALSE FALSE FALSE
c __CPROVER_next_thread_id#1 FALSE FALSE FALSE FALSE FALSE FALSE FALSE FALSE FALSE FALSE FALSE FALSE FALSE FALSE FALSE FALSE FALSE FALSE FALSE FALSE FALSE FALSE FALSE FALSE FALSE FALSE FALSE FALSE FALSE FALSE FALSE FALSE FALSE FALSE FALSE FALSE FALSE FALSE FALSE FALSE FALSE FALSE FALSE FALSE FALSE FALSE FALSE FALSE FALSE FALSE FALSE FALSE FALSE FALSE FALSE FALSE FALSE FALSE FALSE FALSE FALSE FALSE FALSE FALSE
c __CPROVER_malloc_object#1 FALSE FALSE FALSE FALSE FALSE FALSE FALSE FALSE FALSE FALSE FALSE FALSE FALSE FALSE FALSE FALSE FALSE FALSE FALSE FALSE FALSE FALSE FALSE FALSE FALSE FALSE FALSE FALSE FALSE FALSE FALSE FALSE FALSE FALSE FALSE FALSE FALSE FALSE FALSE FALSE FALSE FALSE FALSE FALSE FALSE FALSE FALSE FALSE FALSE FALSE FALSE FALSE FALSE FALSE FALSE FALSE FALSE FALSE FALSE FALSE FALSE FALSE FALSE FALSE
c __CPROVER_malloc_size#1 FALSE FALSE FALSE FALSE FALSE FALSE FALSE FALSE FALSE FALSE FALSE FALSE FALSE FALSE FALSE FALSE FALSE FALSE FALSE FALSE FALSE FALSE FALSE FALSE FALSE FALSE FALSE FALSE FALSE FALSE FALSE FALSE FALSE FALSE FALSE FALSE FALSE FALSE FALSE FALSE FALSE FALSE FALSE FALSE FALSE FALSE FALSE FALSE FALSE FALSE FALSE FALSE FALSE FALSE FALSE FALSE FALSE FALSE FALSE FALSE FALSE FALSE FALSE FALSE
c __CPROVER_memory_leak#1 FALSE FALSE FALSE FALSE FALSE FALSE FALSE FALSE FALSE FALSE FALSE FALSE FALSE FALSE FALSE FALSE FALSE FALSE FALSE FALSE FALSE FALSE FALSE FALSE FALSE FALSE FALSE FALSE FALSE FALSE FALSE FALSE FALSE FALSE FALSE FALSE FALSE FALSE FALSE FALSE FALSE FALSE FALSE FALSE FALSE FALSE FALSE FALSE FALSE FALSE FALSE FALSE FALSE FALSE FALSE FALSE FALSE FALSE FALSE FALSE FALSE FALSE FALSE FALSE
